
(set-option :produce-models true)
(set-option :inline-size-limit 10000)

(declare-const var0 String)

(push 1)
(assert (str.in.re var0 (re.* (re.range "\x01" "\xff"))))
(assert (str.in.re var0 (re.++ (re.++ re.begin-anchor ((_ re.capture 1) (re.++ ((_ re.capture 2) (re.union (re.++ (re.union (re.++ (str.to.re "") (str.to.re "0")) (str.to.re "")) (re.range "1" "9")) (re.++ (str.to.re "1") (re.range "0" "2")))) (re.++ (re.union (str.to.re "/") (re.union (str.to.re "|") (re.union (str.to.re "-") (re.union (str.to.re "|") (str.to.re "."))))) (re.++ ((_ re.capture 3) (re.union (re.union (re.++ (re.range "0" "2") (re.range "0" "9")) (re.++ (str.to.re "3") (re.range "0" "1"))) (re.range "1" "9"))) (re.++ (re.union (str.to.re "/") (re.union (str.to.re "|") (re.union (str.to.re "-") (re.union (str.to.re "|") (str.to.re "."))))) (re.++ (re.union (re.++ (str.to.re "") ((_ re.capture 4) (re.++ (str.to.re "2") (str.to.re "0")))) (str.to.re "")) (re.++ (re.++ (re.range "0" "9") (re.range "0" "9")) (re.++ (re.+ (re.union (str.to.re " ") (re.union (str.to.re "\u{0b}") (re.union (str.to.re "\u{0a}") (re.union (str.to.re "\u{0d}") (re.union (str.to.re "\u{09}") (str.to.re "\u{0c}"))))))) ((_ re.capture 5) (re.union ((_ re.capture 6) (re.++ ((_ re.capture 7) (re.union (re.union (re.++ (str.to.re "0") (re.range "0" "9")) (re.++ (str.to.re "1") (re.range "0" "2"))) (re.range "0" "9"))) (re.++ (re.union (str.to.re ":") (re.union (str.to.re "|") (re.union (str.to.re "-") (re.union (str.to.re "|") (str.to.re "."))))) (re.++ ((_ re.capture 8) (re.++ (re.range "0" "5") (re.range "0" "9"))) (re.++ (re.* (re.union (str.to.re " ") (re.union (str.to.re "\u{0b}") (re.union (str.to.re "\u{0a}") (re.union (str.to.re "\u{0d}") (re.union (str.to.re "\u{09}") (str.to.re "\u{0c}"))))))) (re.union (re.++ (str.to.re "") ((_ re.capture 9) (re.++ (re.union (str.to.re "a") (re.union (str.to.re "A") (re.union (str.to.re "p") (str.to.re "P")))) (re.union (str.to.re "m") (str.to.re "M"))))) (str.to.re ""))))))) ((_ re.capture 10) (re.++ ((_ re.capture 11) (re.union (re.union (re.++ (re.range "0" "1") (re.range "0" "9")) (re.++ (str.to.re "2") (re.range "0" "3"))) (re.range "0" "9"))) (re.++ (re.union (str.to.re ":") (re.union (str.to.re "|") (re.union (str.to.re "-") (re.union (str.to.re "|") (str.to.re "."))))) ((_ re.capture 12) (re.++ (re.range "0" "5") (re.range "0" "9"))))))))))))))))) re.end-anchor)))	; match!==null
(assert (not (str.in.re ((_ str.extract 1) var0 (re.++ (re.++ re.begin-anchor ((_ re.capture 1) (re.++ ((_ re.capture 2) (re.union (re.++ (re.union (re.++ (str.to.re "") (str.to.re "0")) (str.to.re "")) (re.range "1" "9")) (re.++ (str.to.re "1") (re.range "0" "2")))) (re.++ (re.union (str.to.re "/") (re.union (str.to.re "|") (re.union (str.to.re "-") (re.union (str.to.re "|") (str.to.re "."))))) (re.++ ((_ re.capture 3) (re.union (re.union (re.++ (re.range "0" "2") (re.range "0" "9")) (re.++ (str.to.re "3") (re.range "0" "1"))) (re.range "1" "9"))) (re.++ (re.union (str.to.re "/") (re.union (str.to.re "|") (re.union (str.to.re "-") (re.union (str.to.re "|") (str.to.re "."))))) (re.++ (re.union (re.++ (str.to.re "") ((_ re.capture 4) (re.++ (str.to.re "2") (str.to.re "0")))) (str.to.re "")) (re.++ (re.++ (re.range "0" "9") (re.range "0" "9")) (re.++ (re.+ (re.union (str.to.re " ") (re.union (str.to.re "\u{0b}") (re.union (str.to.re "\u{0a}") (re.union (str.to.re "\u{0d}") (re.union (str.to.re "\u{09}") (str.to.re "\u{0c}"))))))) ((_ re.capture 5) (re.union ((_ re.capture 6) (re.++ ((_ re.capture 7) (re.union (re.union (re.++ (str.to.re "0") (re.range "0" "9")) (re.++ (str.to.re "1") (re.range "0" "2"))) (re.range "0" "9"))) (re.++ (re.union (str.to.re ":") (re.union (str.to.re "|") (re.union (str.to.re "-") (re.union (str.to.re "|") (str.to.re "."))))) (re.++ ((_ re.capture 8) (re.++ (re.range "0" "5") (re.range "0" "9"))) (re.++ (re.* (re.union (str.to.re " ") (re.union (str.to.re "\u{0b}") (re.union (str.to.re "\u{0a}") (re.union (str.to.re "\u{0d}") (re.union (str.to.re "\u{09}") (str.to.re "\u{0c}"))))))) (re.union (re.++ (str.to.re "") ((_ re.capture 9) (re.++ (re.union (str.to.re "a") (re.union (str.to.re "A") (re.union (str.to.re "p") (str.to.re "P")))) (re.union (str.to.re "m") (str.to.re "M"))))) (str.to.re ""))))))) ((_ re.capture 10) (re.++ ((_ re.capture 11) (re.union (re.union (re.++ (re.range "0" "1") (re.range "0" "9")) (re.++ (str.to.re "2") (re.range "0" "3"))) (re.range "0" "9"))) (re.++ (re.union (str.to.re ":") (re.union (str.to.re "|") (re.union (str.to.re "-") (re.union (str.to.re "|") (str.to.re "."))))) ((_ re.capture 12) (re.++ (re.range "0" "5") (re.range "0" "9"))))))))))))))))) re.end-anchor)) (str.to.re "\x00"))))
;match[1]!==null
(assert (str.in.re ((_ str.extract 1) var0 (re.++ (re.++ re.begin-anchor ((_ re.capture 1) (re.++ ((_ re.capture 2) (re.union (re.++ (re.union (re.++ (str.to.re "") (str.to.re "0")) (str.to.re "")) (re.range "1" "9")) (re.++ (str.to.re "1") (re.range "0" "2")))) (re.++ (re.union (str.to.re "/") (re.union (str.to.re "|") (re.union (str.to.re "-") (re.union (str.to.re "|") (str.to.re "."))))) (re.++ ((_ re.capture 3) (re.union (re.union (re.++ (re.range "0" "2") (re.range "0" "9")) (re.++ (str.to.re "3") (re.range "0" "1"))) (re.range "1" "9"))) (re.++ (re.union (str.to.re "/") (re.union (str.to.re "|") (re.union (str.to.re "-") (re.union (str.to.re "|") (str.to.re "."))))) (re.++ (re.union (re.++ (str.to.re "") ((_ re.capture 4) (re.++ (str.to.re "2") (str.to.re "0")))) (str.to.re "")) (re.++ (re.++ (re.range "0" "9") (re.range "0" "9")) (re.++ (re.+ (re.union (str.to.re " ") (re.union (str.to.re "\u{0b}") (re.union (str.to.re "\u{0a}") (re.union (str.to.re "\u{0d}") (re.union (str.to.re "\u{09}") (str.to.re "\u{0c}"))))))) ((_ re.capture 5) (re.union ((_ re.capture 6) (re.++ ((_ re.capture 7) (re.union (re.union (re.++ (str.to.re "0") (re.range "0" "9")) (re.++ (str.to.re "1") (re.range "0" "2"))) (re.range "0" "9"))) (re.++ (re.union (str.to.re ":") (re.union (str.to.re "|") (re.union (str.to.re "-") (re.union (str.to.re "|") (str.to.re "."))))) (re.++ ((_ re.capture 8) (re.++ (re.range "0" "5") (re.range "0" "9"))) (re.++ (re.* (re.union (str.to.re " ") (re.union (str.to.re "\u{0b}") (re.union (str.to.re "\u{0a}") (re.union (str.to.re "\u{0d}") (re.union (str.to.re "\u{09}") (str.to.re "\u{0c}"))))))) (re.union (re.++ (str.to.re "") ((_ re.capture 9) (re.++ (re.union (str.to.re "a") (re.union (str.to.re "A") (re.union (str.to.re "p") (str.to.re "P")))) (re.union (str.to.re "m") (str.to.re "M"))))) (str.to.re ""))))))) ((_ re.capture 10) (re.++ ((_ re.capture 11) (re.union (re.union (re.++ (re.range "0" "1") (re.range "0" "9")) (re.++ (str.to.re "2") (re.range "0" "3"))) (re.range "0" "9"))) (re.++ (re.union (str.to.re ":") (re.union (str.to.re "|") (re.union (str.to.re "-") (re.union (str.to.re "|") (str.to.re "."))))) ((_ re.capture 12) (re.++ (re.range "0" "5") (re.range "0" "9"))))))))))))))))) re.end-anchor)) (re.++ re.all(re.+ (re.range "a" "z")) re.all) ))
;/[a-z]+/.test(match[1]) == true
(check-sat)
(get-model)
(pop 1)
(push 1)
(assert (str.in.re var0 (re.* (re.range "\x01" "\xff"))))
(assert (str.in.re var0 (re.++ (re.++ re.begin-anchor ((_ re.capture 1) (re.++ ((_ re.capture 2) (re.union (re.++ (re.union (re.++ (str.to.re "") (str.to.re "0")) (str.to.re "")) (re.range "1" "9")) (re.++ (str.to.re "1") (re.range "0" "2")))) (re.++ (re.union (str.to.re "/") (re.union (str.to.re "|") (re.union (str.to.re "-") (re.union (str.to.re "|") (str.to.re "."))))) (re.++ ((_ re.capture 3) (re.union (re.union (re.++ (re.range "0" "2") (re.range "0" "9")) (re.++ (str.to.re "3") (re.range "0" "1"))) (re.range "1" "9"))) (re.++ (re.union (str.to.re "/") (re.union (str.to.re "|") (re.union (str.to.re "-") (re.union (str.to.re "|") (str.to.re "."))))) (re.++ (re.union (re.++ (str.to.re "") ((_ re.capture 4) (re.++ (str.to.re "2") (str.to.re "0")))) (str.to.re "")) (re.++ (re.++ (re.range "0" "9") (re.range "0" "9")) (re.++ (re.+ (re.union (str.to.re " ") (re.union (str.to.re "\u{0b}") (re.union (str.to.re "\u{0a}") (re.union (str.to.re "\u{0d}") (re.union (str.to.re "\u{09}") (str.to.re "\u{0c}"))))))) ((_ re.capture 5) (re.union ((_ re.capture 6) (re.++ ((_ re.capture 7) (re.union (re.union (re.++ (str.to.re "0") (re.range "0" "9")) (re.++ (str.to.re "1") (re.range "0" "2"))) (re.range "0" "9"))) (re.++ (re.union (str.to.re ":") (re.union (str.to.re "|") (re.union (str.to.re "-") (re.union (str.to.re "|") (str.to.re "."))))) (re.++ ((_ re.capture 8) (re.++ (re.range "0" "5") (re.range "0" "9"))) (re.++ (re.* (re.union (str.to.re " ") (re.union (str.to.re "\u{0b}") (re.union (str.to.re "\u{0a}") (re.union (str.to.re "\u{0d}") (re.union (str.to.re "\u{09}") (str.to.re "\u{0c}"))))))) (re.union (re.++ (str.to.re "") ((_ re.capture 9) (re.++ (re.union (str.to.re "a") (re.union (str.to.re "A") (re.union (str.to.re "p") (str.to.re "P")))) (re.union (str.to.re "m") (str.to.re "M"))))) (str.to.re ""))))))) ((_ re.capture 10) (re.++ ((_ re.capture 11) (re.union (re.union (re.++ (re.range "0" "1") (re.range "0" "9")) (re.++ (str.to.re "2") (re.range "0" "3"))) (re.range "0" "9"))) (re.++ (re.union (str.to.re ":") (re.union (str.to.re "|") (re.union (str.to.re "-") (re.union (str.to.re "|") (str.to.re "."))))) ((_ re.capture 12) (re.++ (re.range "0" "5") (re.range "0" "9"))))))))))))))))) re.end-anchor)))	; match!==null
(assert (not (str.in.re ((_ str.extract 1) var0 (re.++ (re.++ re.begin-anchor ((_ re.capture 1) (re.++ ((_ re.capture 2) (re.union (re.++ (re.union (re.++ (str.to.re "") (str.to.re "0")) (str.to.re "")) (re.range "1" "9")) (re.++ (str.to.re "1") (re.range "0" "2")))) (re.++ (re.union (str.to.re "/") (re.union (str.to.re "|") (re.union (str.to.re "-") (re.union (str.to.re "|") (str.to.re "."))))) (re.++ ((_ re.capture 3) (re.union (re.union (re.++ (re.range "0" "2") (re.range "0" "9")) (re.++ (str.to.re "3") (re.range "0" "1"))) (re.range "1" "9"))) (re.++ (re.union (str.to.re "/") (re.union (str.to.re "|") (re.union (str.to.re "-") (re.union (str.to.re "|") (str.to.re "."))))) (re.++ (re.union (re.++ (str.to.re "") ((_ re.capture 4) (re.++ (str.to.re "2") (str.to.re "0")))) (str.to.re "")) (re.++ (re.++ (re.range "0" "9") (re.range "0" "9")) (re.++ (re.+ (re.union (str.to.re " ") (re.union (str.to.re "\u{0b}") (re.union (str.to.re "\u{0a}") (re.union (str.to.re "\u{0d}") (re.union (str.to.re "\u{09}") (str.to.re "\u{0c}"))))))) ((_ re.capture 5) (re.union ((_ re.capture 6) (re.++ ((_ re.capture 7) (re.union (re.union (re.++ (str.to.re "0") (re.range "0" "9")) (re.++ (str.to.re "1") (re.range "0" "2"))) (re.range "0" "9"))) (re.++ (re.union (str.to.re ":") (re.union (str.to.re "|") (re.union (str.to.re "-") (re.union (str.to.re "|") (str.to.re "."))))) (re.++ ((_ re.capture 8) (re.++ (re.range "0" "5") (re.range "0" "9"))) (re.++ (re.* (re.union (str.to.re " ") (re.union (str.to.re "\u{0b}") (re.union (str.to.re "\u{0a}") (re.union (str.to.re "\u{0d}") (re.union (str.to.re "\u{09}") (str.to.re "\u{0c}"))))))) (re.union (re.++ (str.to.re "") ((_ re.capture 9) (re.++ (re.union (str.to.re "a") (re.union (str.to.re "A") (re.union (str.to.re "p") (str.to.re "P")))) (re.union (str.to.re "m") (str.to.re "M"))))) (str.to.re ""))))))) ((_ re.capture 10) (re.++ ((_ re.capture 11) (re.union (re.union (re.++ (re.range "0" "1") (re.range "0" "9")) (re.++ (str.to.re "2") (re.range "0" "3"))) (re.range "0" "9"))) (re.++ (re.union (str.to.re ":") (re.union (str.to.re "|") (re.union (str.to.re "-") (re.union (str.to.re "|") (str.to.re "."))))) ((_ re.capture 12) (re.++ (re.range "0" "5") (re.range "0" "9"))))))))))))))))) re.end-anchor)) (str.to.re "\x00"))))	
;match[1]!==null
(assert (not (str.in.re ((_ str.extract 1) var0 (re.++ (re.++ re.begin-anchor ((_ re.capture 1) (re.++ ((_ re.capture 2) (re.union (re.++ (re.union (re.++ (str.to.re "") (str.to.re "0")) (str.to.re "")) (re.range "1" "9")) (re.++ (str.to.re "1") (re.range "0" "2")))) (re.++ (re.union (str.to.re "/") (re.union (str.to.re "|") (re.union (str.to.re "-") (re.union (str.to.re "|") (str.to.re "."))))) (re.++ ((_ re.capture 3) (re.union (re.union (re.++ (re.range "0" "2") (re.range "0" "9")) (re.++ (str.to.re "3") (re.range "0" "1"))) (re.range "1" "9"))) (re.++ (re.union (str.to.re "/") (re.union (str.to.re "|") (re.union (str.to.re "-") (re.union (str.to.re "|") (str.to.re "."))))) (re.++ (re.union (re.++ (str.to.re "") ((_ re.capture 4) (re.++ (str.to.re "2") (str.to.re "0")))) (str.to.re "")) (re.++ (re.++ (re.range "0" "9") (re.range "0" "9")) (re.++ (re.+ (re.union (str.to.re " ") (re.union (str.to.re "\u{0b}") (re.union (str.to.re "\u{0a}") (re.union (str.to.re "\u{0d}") (re.union (str.to.re "\u{09}") (str.to.re "\u{0c}"))))))) ((_ re.capture 5) (re.union ((_ re.capture 6) (re.++ ((_ re.capture 7) (re.union (re.union (re.++ (str.to.re "0") (re.range "0" "9")) (re.++ (str.to.re "1") (re.range "0" "2"))) (re.range "0" "9"))) (re.++ (re.union (str.to.re ":") (re.union (str.to.re "|") (re.union (str.to.re "-") (re.union (str.to.re "|") (str.to.re "."))))) (re.++ ((_ re.capture 8) (re.++ (re.range "0" "5") (re.range "0" "9"))) (re.++ (re.* (re.union (str.to.re " ") (re.union (str.to.re "\u{0b}") (re.union (str.to.re "\u{0a}") (re.union (str.to.re "\u{0d}") (re.union (str.to.re "\u{09}") (str.to.re "\u{0c}"))))))) (re.union (re.++ (str.to.re "") ((_ re.capture 9) (re.++ (re.union (str.to.re "a") (re.union (str.to.re "A") (re.union (str.to.re "p") (str.to.re "P")))) (re.union (str.to.re "m") (str.to.re "M"))))) (str.to.re ""))))))) ((_ re.capture 10) (re.++ ((_ re.capture 11) (re.union (re.union (re.++ (re.range "0" "1") (re.range "0" "9")) (re.++ (str.to.re "2") (re.range "0" "3"))) (re.range "0" "9"))) (re.++ (re.union (str.to.re ":") (re.union (str.to.re "|") (re.union (str.to.re "-") (re.union (str.to.re "|") (str.to.re "."))))) ((_ re.capture 12) (re.++ (re.range "0" "5") (re.range "0" "9"))))))))))))))))) re.end-anchor)) (re.++ re.all(re.+ (re.range "a" "z")) re.all) )))
;/[a-z]+/.test(match[1]) == false	
(check-sat)
(get-model)
(pop 1)
(push 1)
(assert (str.in.re var0 (re.* (re.range "\x01" "\xff"))))
(assert (str.in.re var0 (re.++ (re.++ re.begin-anchor ((_ re.capture 1) (re.++ ((_ re.capture 2) (re.union (re.++ (re.union (re.++ (str.to.re "") (str.to.re "0")) (str.to.re "")) (re.range "1" "9")) (re.++ (str.to.re "1") (re.range "0" "2")))) (re.++ (re.union (str.to.re "/") (re.union (str.to.re "|") (re.union (str.to.re "-") (re.union (str.to.re "|") (str.to.re "."))))) (re.++ ((_ re.capture 3) (re.union (re.union (re.++ (re.range "0" "2") (re.range "0" "9")) (re.++ (str.to.re "3") (re.range "0" "1"))) (re.range "1" "9"))) (re.++ (re.union (str.to.re "/") (re.union (str.to.re "|") (re.union (str.to.re "-") (re.union (str.to.re "|") (str.to.re "."))))) (re.++ (re.union (re.++ (str.to.re "") ((_ re.capture 4) (re.++ (str.to.re "2") (str.to.re "0")))) (str.to.re "")) (re.++ (re.++ (re.range "0" "9") (re.range "0" "9")) (re.++ (re.+ (re.union (str.to.re " ") (re.union (str.to.re "\u{0b}") (re.union (str.to.re "\u{0a}") (re.union (str.to.re "\u{0d}") (re.union (str.to.re "\u{09}") (str.to.re "\u{0c}"))))))) ((_ re.capture 5) (re.union ((_ re.capture 6) (re.++ ((_ re.capture 7) (re.union (re.union (re.++ (str.to.re "0") (re.range "0" "9")) (re.++ (str.to.re "1") (re.range "0" "2"))) (re.range "0" "9"))) (re.++ (re.union (str.to.re ":") (re.union (str.to.re "|") (re.union (str.to.re "-") (re.union (str.to.re "|") (str.to.re "."))))) (re.++ ((_ re.capture 8) (re.++ (re.range "0" "5") (re.range "0" "9"))) (re.++ (re.* (re.union (str.to.re " ") (re.union (str.to.re "\u{0b}") (re.union (str.to.re "\u{0a}") (re.union (str.to.re "\u{0d}") (re.union (str.to.re "\u{09}") (str.to.re "\u{0c}"))))))) (re.union (re.++ (str.to.re "") ((_ re.capture 9) (re.++ (re.union (str.to.re "a") (re.union (str.to.re "A") (re.union (str.to.re "p") (str.to.re "P")))) (re.union (str.to.re "m") (str.to.re "M"))))) (str.to.re ""))))))) ((_ re.capture 10) (re.++ ((_ re.capture 11) (re.union (re.union (re.++ (re.range "0" "1") (re.range "0" "9")) (re.++ (str.to.re "2") (re.range "0" "3"))) (re.range "0" "9"))) (re.++ (re.union (str.to.re ":") (re.union (str.to.re "|") (re.union (str.to.re "-") (re.union (str.to.re "|") (str.to.re "."))))) ((_ re.capture 12) (re.++ (re.range "0" "5") (re.range "0" "9"))))))))))))))))) re.end-anchor)))	; match!==null
(assert (str.in.re ((_ str.extract 1) var0 (re.++ (re.++ re.begin-anchor ((_ re.capture 1) (re.++ ((_ re.capture 2) (re.union (re.++ (re.union (re.++ (str.to.re "") (str.to.re "0")) (str.to.re "")) (re.range "1" "9")) (re.++ (str.to.re "1") (re.range "0" "2")))) (re.++ (re.union (str.to.re "/") (re.union (str.to.re "|") (re.union (str.to.re "-") (re.union (str.to.re "|") (str.to.re "."))))) (re.++ ((_ re.capture 3) (re.union (re.union (re.++ (re.range "0" "2") (re.range "0" "9")) (re.++ (str.to.re "3") (re.range "0" "1"))) (re.range "1" "9"))) (re.++ (re.union (str.to.re "/") (re.union (str.to.re "|") (re.union (str.to.re "-") (re.union (str.to.re "|") (str.to.re "."))))) (re.++ (re.union (re.++ (str.to.re "") ((_ re.capture 4) (re.++ (str.to.re "2") (str.to.re "0")))) (str.to.re "")) (re.++ (re.++ (re.range "0" "9") (re.range "0" "9")) (re.++ (re.+ (re.union (str.to.re " ") (re.union (str.to.re "\u{0b}") (re.union (str.to.re "\u{0a}") (re.union (str.to.re "\u{0d}") (re.union (str.to.re "\u{09}") (str.to.re "\u{0c}"))))))) ((_ re.capture 5) (re.union ((_ re.capture 6) (re.++ ((_ re.capture 7) (re.union (re.union (re.++ (str.to.re "0") (re.range "0" "9")) (re.++ (str.to.re "1") (re.range "0" "2"))) (re.range "0" "9"))) (re.++ (re.union (str.to.re ":") (re.union (str.to.re "|") (re.union (str.to.re "-") (re.union (str.to.re "|") (str.to.re "."))))) (re.++ ((_ re.capture 8) (re.++ (re.range "0" "5") (re.range "0" "9"))) (re.++ (re.* (re.union (str.to.re " ") (re.union (str.to.re "\u{0b}") (re.union (str.to.re "\u{0a}") (re.union (str.to.re "\u{0d}") (re.union (str.to.re "\u{09}") (str.to.re "\u{0c}"))))))) (re.union (re.++ (str.to.re "") ((_ re.capture 9) (re.++ (re.union (str.to.re "a") (re.union (str.to.re "A") (re.union (str.to.re "p") (str.to.re "P")))) (re.union (str.to.re "m") (str.to.re "M"))))) (str.to.re ""))))))) ((_ re.capture 10) (re.++ ((_ re.capture 11) (re.union (re.union (re.++ (re.range "0" "1") (re.range "0" "9")) (re.++ (str.to.re "2") (re.range "0" "3"))) (re.range "0" "9"))) (re.++ (re.union (str.to.re ":") (re.union (str.to.re "|") (re.union (str.to.re "-") (re.union (str.to.re "|") (str.to.re "."))))) ((_ re.capture 12) (re.++ (re.range "0" "5") (re.range "0" "9"))))))))))))))))) re.end-anchor)) (str.to.re "\x00")))
;match[1]==null
(check-sat)
(get-model)
(pop 1)
(push 1)
(assert (str.in.re var0 (re.* (re.range "\x01" "\xff"))))
(assert (not (str.in.re var0 (re.++ (re.++ re.begin-anchor ((_ re.capture 1) (re.++ ((_ re.capture 2) (re.union (re.++ (re.union (re.++ (str.to.re "") (str.to.re "0")) (str.to.re "")) (re.range "1" "9")) (re.++ (str.to.re "1") (re.range "0" "2")))) (re.++ (re.union (str.to.re "/") (re.union (str.to.re "|") (re.union (str.to.re "-") (re.union (str.to.re "|") (str.to.re "."))))) (re.++ ((_ re.capture 3) (re.union (re.union (re.++ (re.range "0" "2") (re.range "0" "9")) (re.++ (str.to.re "3") (re.range "0" "1"))) (re.range "1" "9"))) (re.++ (re.union (str.to.re "/") (re.union (str.to.re "|") (re.union (str.to.re "-") (re.union (str.to.re "|") (str.to.re "."))))) (re.++ (re.union (re.++ (str.to.re "") ((_ re.capture 4) (re.++ (str.to.re "2") (str.to.re "0")))) (str.to.re "")) (re.++ (re.++ (re.range "0" "9") (re.range "0" "9")) (re.++ (re.+ (re.union (str.to.re " ") (re.union (str.to.re "\u{0b}") (re.union (str.to.re "\u{0a}") (re.union (str.to.re "\u{0d}") (re.union (str.to.re "\u{09}") (str.to.re "\u{0c}"))))))) ((_ re.capture 5) (re.union ((_ re.capture 6) (re.++ ((_ re.capture 7) (re.union (re.union (re.++ (str.to.re "0") (re.range "0" "9")) (re.++ (str.to.re "1") (re.range "0" "2"))) (re.range "0" "9"))) (re.++ (re.union (str.to.re ":") (re.union (str.to.re "|") (re.union (str.to.re "-") (re.union (str.to.re "|") (str.to.re "."))))) (re.++ ((_ re.capture 8) (re.++ (re.range "0" "5") (re.range "0" "9"))) (re.++ (re.* (re.union (str.to.re " ") (re.union (str.to.re "\u{0b}") (re.union (str.to.re "\u{0a}") (re.union (str.to.re "\u{0d}") (re.union (str.to.re "\u{09}") (str.to.re "\u{0c}"))))))) (re.union (re.++ (str.to.re "") ((_ re.capture 9) (re.++ (re.union (str.to.re "a") (re.union (str.to.re "A") (re.union (str.to.re "p") (str.to.re "P")))) (re.union (str.to.re "m") (str.to.re "M"))))) (str.to.re ""))))))) ((_ re.capture 10) (re.++ ((_ re.capture 11) (re.union (re.union (re.++ (re.range "0" "1") (re.range "0" "9")) (re.++ (str.to.re "2") (re.range "0" "3"))) (re.range "0" "9"))) (re.++ (re.union (str.to.re ":") (re.union (str.to.re "|") (re.union (str.to.re "-") (re.union (str.to.re "|") (str.to.re "."))))) ((_ re.capture 12) (re.++ (re.range "0" "5") (re.range "0" "9"))))))))))))))))) re.end-anchor))))	; match == null
(check-sat)
(get-model)
(pop 1)
(exit)
